(set-info :status unknown)
(declare-fun %D () (_ BitVec 35))
(declare-fun %C () (_ BitVec 35))
(declare-fun %Cond () (_ BitVec 1))
(assert
 (let ((?x20392 ((_ sign_extend 34) %Cond)))
 (let ((?x13702 (bvxor ?x20392 (_ bv34359738367 35))))
 (let ((?x5612 (bvand ?x13702 %D)))
 (let ((?x5550 (bvand ?x20392 %C)))
 (and (distinct (bvor ?x5550 ?x5612) (ite (= %Cond (_ bv1 1)) %C %D)) true))))))
(check-sat)
